input/MY-INPUT-DATASETS/input7.gr
p tw 150 2235
1 8
1 9
1 11
1 16
1 18
1 26
1 27
1 30
1 32
1 42
1 54
1 67
1 70
1 72
1 73
1 75
1 77
1 80
1 91
1 103
1 123
1 129
1 130
1 138
1 140
1 145
1 150
2 9
2 13
2 16
2 25
2 31
2 32
2 33
2 34
2 38
2 44
2 46
2 49
2 52
2 56
2 57
2 58
2 62
2 64
2 67
2 68
2 73
2 78
2 80
2 84
2 97
2 98
2 99
2 103
2 108
2 109
2 110
2 118
2 119
2 120
2 121
2 123
2 130
2 135
2 145
3 6
3 7
3 8
3 13
3 16
3 22
3 24
3 36
3 37
3 41
3 49
3 52
3 54
3 62
3 63
3 66
3 80
3 81
3 86
3 91
3 94
3 99
3 106
3 112
3 118
3 127
3 129
3 130
3 133
3 141
3 142
3 145
4 8
4 14
4 17
4 38
4 39
4 51
4 63
4 67
4 68
4 69
4 72
4 73
4 80
4 82
4 86
4 103
4 104
4 107
4 108
4 109
4 120
4 121
4 123
4 125
4 133
4 136
4 137
4 138
4 140
4 143
4 144
4 150
5 9
5 13
5 22
5 24
5 41
5 45
5 47
5 48
5 49
5 52
5 70
5 80
5 84
5 88
5 91
5 94
5 96
5 99
5 103
5 106
5 112
5 114
5 118
5 130
5 132
5 133
5 138
5 139
6 10
6 17
6 19
6 26
6 28
6 32
6 37
6 38
6 48
6 49
6 53
6 56
6 60
6 62
6 70
6 71
6 75
6 79
6 91
6 92
6 100
6 112
6 115
6 126
6 127
6 130
6 139
7 11
7 12
7 21
7 25
7 33
7 42
7 45
7 46
7 48
7 51
7 72
7 87
7 88
7 91
7 95
7 98
7 105
7 106
7 114
7 115
7 120
7 133
8 9
8 11
8 12
8 18
8 27
8 28
8 29
8 33
8 36
8 41
8 47
8 48
8 51
8 55
8 56
8 61
8 64
8 67
8 69
8 76
8 77
8 84
8 90
8 91
8 94
8 99
8 102
8 104
8 106
8 108
8 111
8 112
8 113
8 119
8 121
8 125
8 132
8 133
8 136
8 145
8 148
8 149
9 15
9 29
9 35
9 39
9 43
9 46
9 53
9 60
9 73
9 85
9 96
9 101
9 108
9 111
9 112
9 116
9 117
9 124
9 131
9 148
9 149
10 11
10 12
10 29
10 30
10 38
10 52
10 53
10 54
10 58
10 63
10 66
10 76
10 82
10 90
10 93
10 106
10 109
10 111
10 113
10 114
10 124
10 127
10 130
10 131
10 146
11 17
11 26
11 33
11 39
11 40
11 42
11 46
11 48
11 51
11 52
11 53
11 56
11 57
11 60
11 62
11 70
11 77
11 78
11 79
11 84
11 87
11 90
11 96
11 100
11 101
11 106
11 108
11 111
11 117
11 128
11 131
11 134
11 136
11 139
11 140
12 14
12 22
12 24
12 30
12 33
12 34
12 43
12 44
12 53
12 56
12 58
12 62
12 65
12 67
12 69
12 71
12 75
12 83
12 84
12 93
12 95
12 103
12 104
12 107
12 115
12 116
12 118
12 132
12 133
12 144
12 150
13 14
13 31
13 36
13 46
13 49
13 51
13 52
13 64
13 77
13 85
13 97
13 136
13 138
13 143
13 148
14 17
14 21
14 26
14 47
14 49
14 55
14 69
14 70
14 72
14 82
14 88
14 91
14 95
14 106
14 111
14 114
14 117
14 124
14 125
14 126
14 148
15 16
15 19
15 20
15 22
15 27
15 32
15 36
15 39
15 40
15 43
15 48
15 50
15 51
15 56
15 61
15 62
15 65
15 70
15 71
15 77
15 82
15 84
15 87
15 93
15 96
15 100
15 101
15 103
15 108
15 117
15 126
15 129
15 135
15 148
15 150
16 26
16 27
16 32
16 67
16 74
16 77
16 84
16 95
16 101
16 103
16 107
16 108
16 111
16 118
16 119
16 125
16 126
16 127
16 131
16 138
16 144
16 145
16 146
16 149
17 18
17 20
17 23
17 26
17 27
17 29
17 32
17 33
17 42
17 47
17 49
17 61
17 67
17 74
17 77
17 80
17 82
17 90
17 104
17 110
17 115
17 121
17 123
17 124
17 126
17 132
17 135
17 138
17 146
18 25
18 26
18 34
18 35
18 36
18 37
18 48
18 51
18 58
18 59
18 60
18 62
18 71
18 98
18 102
18 106
18 109
18 112
18 116
18 124
18 125
18 130
18 132
18 133
18 134
18 148
19 21
19 26
19 29
19 31
19 39
19 44
19 46
19 47
19 53
19 58
19 64
19 89
19 98
19 104
19 108
19 109
19 112
19 114
19 115
19 131
19 132
19 133
19 141
19 149
20 26
20 32
20 35
20 41
20 46
20 57
20 62
20 66
20 68
20 69
20 70
20 73
20 74
20 75
20 85
20 90
20 93
20 99
20 105
20 108
20 115
20 120
20 122
20 130
20 132
20 136
20 138
20 149
20 150
21 27
21 28
21 29
21 54
21 56
21 63
21 65
21 68
21 75
21 78
21 85
21 91
21 100
21 101
21 103
21 104
21 106
21 107
21 118
21 121
21 124
21 125
21 126
21 141
21 150
22 38
22 40
22 48
22 49
22 55
22 71
22 72
22 74
22 76
22 78
22 80
22 83
22 86
22 88
22 91
22 100
22 102
22 110
22 111
22 114
22 121
22 126
22 129
22 131
22 140
23 32
23 34
23 35
23 41
23 47
23 48
23 51
23 52
23 56
23 59
23 80
23 81
23 90
23 98
23 100
23 103
23 119
23 120
23 122
23 124
23 125
23 127
23 132
23 133
23 144
23 147
24 28
24 35
24 40
24 45
24 52
24 54
24 56
24 57
24 69
24 70
24 80
24 85
24 87
24 94
24 96
24 103
24 105
24 109
24 110
24 117
24 119
24 124
24 132
24 137
24 139
24 143
24 145
25 27
25 33
25 35
25 43
25 49
25 51
25 58
25 62
25 75
25 81
25 83
25 89
25 93
25 110
25 119
25 124
25 128
25 130
25 134
25 136
25 141
25 145
26 33
26 36
26 38
26 40
26 42
26 52
26 54
26 57
26 63
26 71
26 75
26 78
26 82
26 88
26 91
26 94
26 96
26 98
26 99
26 105
26 106
26 109
26 111
26 124
26 127
26 131
26 145
26 148
27 35
27 39
27 43
27 47
27 51
27 53
27 54
27 56
27 61
27 68
27 73
27 76
27 89
27 91
27 93
27 104
27 105
27 118
27 120
27 130
27 131
27 132
28 29
28 38
28 41
28 44
28 62
28 72
28 75
28 77
28 86
28 87
28 95
28 97
28 100
28 122
28 134
28 135
28 142
28 144
28 145
29 34
29 35
29 42
29 44
29 57
29 59
29 63
29 64
29 68
29 69
29 70
29 73
29 76
29 86
29 91
29 92
29 94
29 96
29 99
29 107
29 110
29 111
29 114
29 139
29 147
29 149
30 36
30 39
30 40
30 42
30 44
30 56
30 57
30 58
30 59
30 67
30 68
30 71
30 83
30 87
30 93
30 94
30 102
30 109
30 112
30 117
30 119
30 126
30 128
30 130
30 133
30 134
30 135
30 141
30 144
31 42
31 52
31 53
31 54
31 59
31 63
31 73
31 80
31 83
31 87
31 91
31 97
31 103
31 106
31 116
31 118
31 137
31 144
31 149
32 34
32 36
32 39
32 45
32 46
32 47
32 49
32 51
32 58
32 65
32 67
32 68
32 77
32 78
32 80
32 86
32 87
32 96
32 102
32 103
32 105
32 112
32 117
32 118
32 121
32 124
32 125
32 131
32 135
32 138
32 143
32 150
33 35
33 38
33 40
33 44
33 50
33 51
33 60
33 64
33 78
33 80
33 90
33 93
33 95
33 108
33 115
33 128
33 131
33 134
33 140
33 141
33 142
34 38
34 43
34 55
34 56
34 73
34 78
34 80
34 99
34 102
34 103
34 104
34 105
34 119
34 122
34 126
34 128
34 136
34 137
34 141
34 142
35 37
35 44
35 49
35 58
35 62
35 67
35 83
35 96
35 97
35 98
35 116
35 123
35 129
35 135
35 137
35 146
36 42
36 48
36 53
36 54
36 56
36 57
36 58
36 59
36 60
36 64
36 74
36 81
36 90
36 91
36 98
36 100
36 105
36 108
36 109
36 119
36 123
36 126
36 127
36 128
36 133
36 143
37 55
37 57
37 63
37 71
37 74
37 77
37 82
37 83
37 87
37 91
37 98
37 110
37 111
37 115
37 119
37 123
37 126
37 127
37 130
37 137
37 140
37 143
37 145
37 149
38 40
38 45
38 59
38 61
38 62
38 66
38 67
38 84
38 89
38 92
38 98
38 103
38 106
38 107
38 108
38 110
38 113
38 119
38 123
38 126
38 129
38 136
38 138
39 57
39 61
39 65
39 68
39 69
39 70
39 72
39 75
39 79
39 88
39 95
39 99
39 105
39 111
39 120
39 123
39 130
39 133
39 134
40 43
40 53
40 54
40 55
40 67
40 72
40 74
40 77
40 78
40 88
40 91
40 94
40 102
40 105
40 115
40 116
40 125
40 131
40 136
40 139
40 142
40 149
40 150
41 49
41 53
41 60
41 63
41 69
41 72
41 73
41 78
41 82
41 92
41 93
41 95
41 106
41 115
41 119
41 126
41 133
41 134
41 136
41 142
41 146
42 44
42 61
42 73
42 81
42 84
42 85
42 90
42 93
42 96
42 106
42 107
42 109
42 112
42 118
42 127
42 133
42 134
42 138
43 45
43 46
43 48
43 61
43 69
43 70
43 76
43 82
43 92
43 93
43 97
43 101
43 115
43 117
43 118
43 125
43 127
43 128
43 131
43 132
43 135
43 142
43 144
43 146
43 149
43 150
44 48
44 50
44 54
44 55
44 64
44 79
44 86
44 88
44 89
44 91
44 99
44 100
44 111
44 114
44 117
44 134
44 136
44 145
44 149
45 46
45 47
45 48
45 60
45 64
45 71
45 72
45 77
45 78
45 86
45 87
45 90
45 95
45 99
45 100
45 101
45 104
45 105
45 109
45 111
45 112
45 120
45 131
45 137
45 145
45 150
46 51
46 54
46 56
46 59
46 60
46 62
46 71
46 82
46 85
46 87
46 93
46 102
46 113
46 115
46 116
46 124
46 127
46 128
46 129
46 132
46 134
46 136
46 138
46 141
46 146
47 48
47 55
47 60
47 62
47 63
47 87
47 92
47 98
47 105
47 119
47 120
47 126
47 127
47 136
47 137
47 139
47 148
48 50
48 63
48 71
48 72
48 78
48 80
48 84
48 86
48 88
48 90
48 93
48 95
48 97
48 116
48 117
48 122
48 124
48 128
48 137
48 143
48 146
49 71
49 76
49 82
49 89
49 93
49 97
49 98
49 99
49 103
49 114
49 115
49 122
49 133
49 135
49 138
49 147
50 55
50 58
50 60
50 69
50 73
50 75
50 81
50 82
50 84
50 85
50 93
50 94
50 98
50 101
50 105
50 114
50 119
50 123
50 125
50 129
50 131
50 135
50 143
51 70
51 71
51 72
51 89
51 90
51 95
51 96
51 101
51 102
51 104
51 105
51 108
51 111
51 113
51 122
51 135
51 137
51 143
52 54
52 62
52 64
52 68
52 70
52 73
52 78
52 88
52 107
52 110
52 113
52 115
52 117
52 120
52 126
52 131
52 136
52 141
53 54
53 60
53 62
53 64
53 68
53 69
53 79
53 86
53 90
53 94
53 95
53 98
53 103
53 109
53 110
53 115
53 118
53 119
53 122
53 125
53 132
53 133
53 140
53 145
54 58
54 69
54 76
54 77
54 81
54 84
54 89
54 93
54 94
54 99
54 108
54 110
54 115
54 123
54 128
54 132
54 135
54 140
54 141
54 144
54 149
55 57
55 59
55 67
55 70
55 73
55 79
55 85
55 90
55 92
55 96
55 108
55 114
55 139
55 141
56 58
56 59
56 69
56 73
56 75
56 84
56 85
56 88
56 98
56 101
56 102
56 103
56 113
56 118
56 119
56 131
56 137
56 144
57 59
57 64
57 73
57 74
57 76
57 79
57 82
57 87
57 88
57 101
57 103
57 117
57 124
57 126
57 129
57 132
57 141
57 144
58 65
58 70
58 80
58 85
58 93
58 97
58 101
58 103
58 104
58 105
58 109
58 111
58 113
58 117
58 118
58 123
58 126
58 129
58 134
58 137
58 139
58 143
58 146
58 147
59 61
59 65
59 76
59 83
59 102
59 104
59 107
59 113
59 123
59 127
59 129
59 130
59 132
59 141
59 146
60 77
60 80
60 82
60 83
60 88
60 94
60 104
60 107
60 110
60 112
60 127
60 128
60 145
60 150
61 62
61 65
61 69
61 71
61 82
61 87
61 101
61 103
61 105
61 110
61 113
61 125
61 136
61 139
61 140
61 141
61 143
62 78
62 79
62 82
62 83
62 97
62 98
62 106
62 109
62 115
62 122
62 125
62 127
62 128
63 64
63 72
63 73
63 74
63 75
63 82
63 90
63 91
63 92
63 96
63 103
63 131
63 132
63 134
63 141
63 145
64 68
64 69
64 75
64 78
64 82
64 85
64 98
64 101
64 104
64 105
64 109
64 117
64 127
64 129
64 132
64 141
64 144
64 145
64 149
65 80
65 84
65 87
65 88
65 92
65 93
65 96
65 101
65 102
65 105
65 106
65 107
65 108
65 113
65 117
65 121
65 124
65 132
65 133
65 136
65 140
65 144
65 149
66 70
66 73
66 74
66 75
66 79
66 86
66 90
66 95
66 98
66 101
66 106
66 108
66 119
66 128
66 136
66 142
66 143
66 145
66 150
67 76
67 80
67 82
67 92
67 101
67 131
67 135
67 139
67 141
67 143
67 149
68 70
68 72
68 95
68 102
68 112
68 114
68 124
68 127
68 128
68 130
68 131
68 134
68 139
68 142
68 145
68 147
69 71
69 74
69 76
69 80
69 87
69 102
69 107
69 111
69 118
69 124
69 128
69 129
69 131
69 133
69 147
69 148
69 150
70 79
70 83
70 94
70 103
70 108
70 127
70 128
70 131
70 144
70 147
70 148
70 149
71 74
71 77
71 84
71 95
71 98
71 99
71 102
71 106
71 110
71 118
71 119
71 132
71 145
71 148
72 76
72 84
72 86
72 97
72 100
72 119
72 133
72 137
72 145
73 79
73 81
73 88
73 90
73 111
73 119
73 129
73 133
73 136
73 138
73 140
74 81
74 87
74 91
74 105
74 115
74 117
74 131
74 132
74 139
74 140
74 141
74 143
74 144
74 149
75 82
75 83
75 92
75 93
75 100
75 103
75 122
75 127
75 136
75 141
75 144
75 145
75 147
75 150
76 82
76 91
76 97
76 104
76 106
76 107
76 112
76 114
76 126
76 134
76 138
76 148
76 150
77 78
77 88
77 90
77 91
77 94
77 97
77 99
77 102
77 104
77 106
77 111
77 112
77 113
77 123
77 134
77 137
77 143
78 83
78 87
78 88
78 90
78 98
78 102
78 105
78 106
78 111
78 113
78 120
78 122
78 126
78 130
78 133
78 136
79 82
79 87
79 88
79 91
79 96
79 111
79 113
79 115
79 117
79 119
79 122
79 127
79 128
79 132
79 134
79 141
80 104
80 111
80 112
80 113
80 115
80 120
80 124
80 126
80 132
80 134
80 138
80 148
81 86
81 91
81 93
81 109
81 115
81 120
81 127
81 130
81 133
81 139
81 145
82 83
82 84
82 88
82 89
82 98
82 105
82 109
82 111
82 114
82 121
82 126
82 131
82 133
82 137
82 139
82 143
82 147
82 148
82 149
83 92
83 98
83 99
83 107
83 108
83 110
83 115
83 116
83 117
83 120
83 121
83 125
83 126
83 127
83 135
83 137
83 141
84 101
84 109
84 115
84 122
84 142
84 146
84 148
85 86
85 89
85 90
85 94
85 96
85 97
85 105
85 116
85 133
85 135
85 139
85 140
85 145
86 87
86 88
86 91
86 100
86 102
86 103
86 106
86 110
86 116
86 128
86 131
86 132
86 139
86 146
86 147
86 150
87 92
87 95
87 100
87 108
87 113
87 123
87 124
87 127
87 129
87 137
87 139
87 140
87 149
88 89
88 94
88 105
88 118
88 120
88 125
88 127
88 131
88 133
88 135
88 139
88 149
89 91
89 108
89 115
89 117
89 123
89 129
89 130
89 134
89 144
89 148
89 150
90 96
90 99
90 100
90 101
90 105
90 107
90 109
90 122
90 128
90 132
90 135
90 138
91 95
91 103
91 109
91 113
91 116
91 124
91 125
91 128
91 132
91 133
91 134
91 138
91 139
91 140
91 149
92 93
92 100
92 101
92 106
92 107
92 119
92 121
92 134
92 137
92 140
92 142
93 102
93 104
93 108
93 111
93 115
93 116
93 120
93 122
93 123
93 124
93 125
93 128
93 136
94 95
94 96
94 104
94 107
94 112
94 116
94 133
94 134
94 136
94 146
94 150
95 100
95 103
95 107
95 116
95 123
95 134
95 136
95 143
95 145
95 149
96 106
96 107
96 116
96 121
96 122
96 124
96 128
96 131
96 134
96 135
96 144
96 145
96 147
96 149
97 99
97 101
97 107
97 120
97 123
97 126
97 138
97 142
97 148
97 150
98 101
98 107
98 108
98 112
98 118
98 119
98 122
98 124
98 125
98 127
98 129
98 130
98 134
98 138
98 145
98 146
98 149
99 116
99 139
99 142
99 148
99 149
100 106
100 126
100 127
100 134
100 135
100 148
101 102
101 107
101 110
101 114
101 120
101 133
101 139
101 141
101 150
102 114
102 115
102 117
102 120
102 123
102 134
102 135
102 137
102 141
102 147
103 108
103 118
103 123
103 127
103 143
104 113
104 115
104 122
104 125
104 132
104 133
104 136
104 137
104 138
104 139
104 146
104 147
104 148
105 110
105 118
105 120
105 124
105 125
105 130
105 131
105 132
105 147
105 149
106 114
106 121
106 122
106 124
106 136
106 143
106 147
106 148
107 109
107 111
107 115
107 120
107 132
107 133
107 135
107 140
107 148
108 109
108 111
108 118
108 123
108 127
108 139
108 140
108 145
108 148
108 149
109 111
109 125
109 129
109 132
109 133
109 139
109 145
109 146
109 148
109 150
110 111
110 117
110 121
110 125
110 138
110 142
111 113
111 114
111 115
111 123
111 126
111 127
111 130
111 138
111 143
111 148
112 116
112 117
112 118
112 120
112 122
112 124
112 126
112 128
112 136
112 142
112 144
112 147
113 119
113 120
113 124
113 132
113 144
113 145
113 146
114 119
114 129
114 132
114 134
114 143
114 146
114 149
115 118
115 120
115 129
115 132
115 135
115 146
116 124
116 125
116 126
116 127
116 130
116 131
116 139
116 144
117 128
117 132
117 138
117 142
117 148
118 120
118 123
118 130
118 131
118 135
118 138
118 141
118 143
118 146
118 149
118 150
119 123
119 124
119 127
119 129
119 131
119 137
119 149
120 122
120 124
120 128
120 131
120 136
120 137
120 139
120 142
120 150
121 124
121 129
121 133
121 140
122 126
122 136
122 139
122 145
122 146
122 149
122 150
123 125
123 148
124 128
124 129
124 135
124 137
124 141
124 142
124 146
124 147
125 136
125 137
125 138
125 142
125 144
126 128
126 134
126 136
126 144
126 147
126 148
126 149
127 130
127 133
127 136
127 137
128 149
129 134
129 150
130 131
130 136
130 138
130 143
130 144
130 145
130 146
130 147
131 137
131 143
131 144
132 137
132 138
132 142
132 149
133 136
133 140
133 145
133 147
133 149
134 137
134 140
134 142
134 147
135 137
136 146
136 147
137 144
137 149
137 150
138 142
138 147
138 150
139 140
139 141
139 143
139 145
139 150
140 144
140 148
141 149
143 145
143 146
143 150
144 149
145 147
146 147
147 150
149 150
